20
6 9
6 1
6 7
6 10
6 2
6 13
6 16
6 3
6 11
6 4
6 5
6 19
9 14
9 8
9 18
9 11
9 3
9 1
9 4
9 2
9 15
9 17
9 7
10 17
10 0
10 4
10 13
10 14
10 1
10 15
10 8
10 16
10 11
10 12
17 1
17 0
17 12
17 2
17 18
17 3
17 5
17 16
17 8
17 11
1 0
1 12
1 15
1 16
1 3
1 18
1 2
1 8
18 19
18 5
18 8
18 0
18 7
18 12
18 13
18 15
18 11
19 4
19 7
19 16
19 14
19 13
19 15
19 2
19 0
19 12
19 5
0 5
0 8
0 2
0 15
0 12
0 3
0 13
3 7
3 15
3 16
3 2
3 4
3 14
3 8
7 8
7 2
7 5
7 11
7 14
7 13
7 4
5 8
5 4
5 14
5 13
5 12
5 15
8 4
8 14
8 11
4 16
4 15
4 12
4 14
12 13
12 16
12 11
12 15
2 13
2 14
2 16
2 15
14 11
14 16
14 13
13 16
13 11
16 11
15 11
